159
10000
3059
529
3901
1484
1735
2969
8258
867
9
3699
8728
5290
5022
5300
1367
3417
4411
879
5446
8081
1199
927
1519
5071
2275
401
562
5469
403
3614
4560
7725
375
428
7031
6624
7464
6106
1561
1397
8684
7400
675
1045
6764
4924
3992
2654
8001
1817
7585
2753
5076
3022
9991
9209
1377
5353
2600
1887
7014
3668
8800
6099
5
9133
3210
1324
8633
3060
1664
5389
7547
1650
3613
1532
1200
2133
4082
65
1316
2453
2199
3948
1919
7488
2395
1144
9419
1688
1087
4265
2986
5392
2301
3192
4858
7169
7952
776
8603
2953
836
1579
7536
5583
937
1810
9904
4165
3122
9702
5440
3311
1742
133
2831
9404
1573
2867
818
1024
1272
1304
298
2066
8468
4647
8336
45
596
4817
4741
5881
1741
5546
8190
2346
5875
4710
96
1362
677
695
2357
2464
1951
3894
7355
189
8049
1279
4640
4782
2512
9867
114
2645
581
